r = [
0,254,211,284,127,66,14,219,67,60,18,268,143,217,50,37,147,118,164,56,169,171,69,39,289,135,0
];
p = [
0,4,20,10,7,14,4,22,1,6,9,11,8,30,27,9,24,6,23,25,24,12,11,24,14,8,0
];
e = [
0,2,2,18,5,4,12,18,20,5,1,16,14,7,10,5,10,9,17,5,8,10,17,4,3,1,0
];
d = [
0,336,231,351,206,110,18,333,68,162,104,279,236,247,77,47,226,195,187,102,193,246,162,96,363,257,370
];
d_bar = [
0,338,241,356,210,117,20,344,69,165,109,285,240,262,91,52,238,198,199,115,205,252,168,108,370,261,370
];
w = [
0,1,0.2,3.6,1.25,0.571428571,6,1.636363636,20,1.666666667,0.2,2.666666667,3.5,0.466666667,0.714285714,1,0.833333333,3,1.416666667,0.384615385,0.666666667,1.666666667,2.833333333,0.333333333,0.428571429,0.25,0
];
